p tdp 16 61
1 2
1 4
1 5
1 6
1 9
1 10
1 11
1 13
1 15
1 16
2 6
2 7
2 8
2 10
2 12
2 14
2 15
3 4
3 5
3 6
3 11
3 12
3 13
3 16
4 5
4 7
4 10
4 15
5 6
5 7
5 9
5 13
5 14
5 15
6 8
6 9
6 13
7 8
7 9
7 10
7 12
7 13
8 14
9 10
9 11
9 13
9 14
9 15
9 16
10 13
10 15
11 12
11 14
11 15
12 13
12 14
12 16
13 15
14 15
14 16
15 16
